units lj
dimension 3
atom_style atomic
pair_style lj/cut 2.5
boundary p p p
region simulation_box block -20 20 -20 20 -20 20
create_box 2 simulation_box
create_atoms 1 random 5000 341341 simulation_box
create_atoms 2 random 1000 127569 simulation_box
mass 1 1
mass 2 1
pair_coeff 1 1 1.0 1.0
pair_coeff 2 2 0.5 3.0
thermo 10
thermo_style custom step temp etotal ke pe ebond eangle edihed evdwl
dump mf1 all xyz 50 LJmin-*.xyz
min_style cg
minimize 1.0e-6 1.0e-8 1000 10000